\ This file has been generated by DOcplex
\ ENCODING=ISO-8859-1
\Problem name: MCLP5_un_c_4x4-2

Minimize
 obj: - 96 y_0 - 96 y_1 - 97 y_2 - 94 y_3 - 95 y_4 - 95 y_5 - 94 y_6 - 93 y_7
      - 94 y_8 - 97 y_9 - 96 y_10 - 97 y_11 - 94 y_12 - 93 y_13 - 93 y_14
      - 96 y_15 - 588 x_1 - 686 x_6 - 588 x_13 + 98 c1a_0_int_slack_0
      + 98 c1a_1_int_slack_0 + 98 c1a_2_int_slack_0 + 98 c1a_2_int_slack_1
      + 98 c1a_5_int_slack_0 + 98 c1a_5_int_slack_1 + 98 c1a_6_int_slack_0
      + 98 c1a_7_int_slack_0 + 98 c1a_9_int_slack_0 + 98 c1a_10_int_slack_0
      + 98 c1a_12_int_slack_0 + 98 c1a_13_int_slack_0 + 98 c1a_14_int_slack_0 +
      [ 98 y_0^2 + 196 y_0*x_1 - 196 y_0*c1a_0_int_slack_0 + 98 y_1^2
      + 196 y_1*x_1 - 196 y_1*c1a_1_int_slack_0 + 98 y_2^2 + 196 y_2*x_1
      + 196 y_2*x_6 - 196 y_2*c1a_2_int_slack_0 - 196 y_2*c1a_2_int_slack_1
      + 98 y_3^2 + 98 y_4^2 + 98 y_5^2 + 196 y_5*x_1 + 196 y_5*x_6
      - 196 y_5*c1a_5_int_slack_0 - 196 y_5*c1a_5_int_slack_1 + 98 y_6^2
      + 196 y_6*x_6 - 196 y_6*c1a_6_int_slack_0 + 98 y_7^2 + 196 y_7*x_6
      - 196 y_7*c1a_7_int_slack_0 + 98 y_8^2 + 98 y_9^2 + 196 y_9*x_13
      - 196 y_9*c1a_9_int_slack_0 + 98 y_10^2 + 196 y_10*x_6
      - 196 y_10*c1a_10_int_slack_0 + 98 y_11^2 + 98 y_12^2 + 196 y_12*x_13
      - 196 y_12*c1a_12_int_slack_0 + 98 y_13^2 + 196 y_13*x_13
      - 196 y_13*c1a_13_int_slack_0 + 98 y_14^2 + 196 y_14*x_13
      - 196 y_14*c1a_14_int_slack_0 + 98 y_15^2 + 490 x_1^2 + 588 x_1*x_6
      + 196 x_1*x_13 - 196 x_1*c1a_0_int_slack_0 - 196 x_1*c1a_1_int_slack_0
      - 196 x_1*c1a_2_int_slack_0 - 196 x_1*c1a_2_int_slack_1
      - 196 x_1*c1a_5_int_slack_0 - 196 x_1*c1a_5_int_slack_1 + 588 x_6^2
      + 196 x_6*x_13 - 196 x_6*c1a_2_int_slack_0 - 196 x_6*c1a_2_int_slack_1
      - 196 x_6*c1a_5_int_slack_0 - 196 x_6*c1a_5_int_slack_1
      - 196 x_6*c1a_6_int_slack_0 - 196 x_6*c1a_7_int_slack_0
      - 196 x_6*c1a_10_int_slack_0 + 490 x_13^2 - 196 x_13*c1a_9_int_slack_0
      - 196 x_13*c1a_12_int_slack_0 - 196 x_13*c1a_13_int_slack_0
      - 196 x_13*c1a_14_int_slack_0 + 98 c1a_0_int_slack_0^2
      + 98 c1a_1_int_slack_0^2 + 98 c1a_2_int_slack_0^2
      + 196 c1a_2_int_slack_0*c1a_2_int_slack_1 + 98 c1a_2_int_slack_1^2
      + 98 c1a_5_int_slack_0^2 + 196 c1a_5_int_slack_0*c1a_5_int_slack_1
      + 98 c1a_5_int_slack_1^2 + 98 c1a_6_int_slack_0^2 + 98 c1a_7_int_slack_0^2
      + 98 c1a_9_int_slack_0^2 + 98 c1a_10_int_slack_0^2
      + 98 c1a_12_int_slack_0^2 + 98 c1a_13_int_slack_0^2
      + 98 c1a_14_int_slack_0^2 ]/2 + 980
Subject To

Bounds
 0 <= y_0 <= 1
 0 <= y_1 <= 1
 0 <= y_2 <= 1
 0 <= y_3 <= 1
 0 <= y_4 <= 1
 0 <= y_5 <= 1
 0 <= y_6 <= 1
 0 <= y_7 <= 1
 0 <= y_8 <= 1
 0 <= y_9 <= 1
 0 <= y_10 <= 1
 0 <= y_11 <= 1
 0 <= y_12 <= 1
 0 <= y_13 <= 1
 0 <= y_14 <= 1
 0 <= y_15 <= 1
 0 <= x_1 <= 1
 0 <= x_6 <= 1
 0 <= x_13 <= 1
 0 <= c1a_0_int_slack_0 <= 1
 0 <= c1a_1_int_slack_0 <= 1
 0 <= c1a_2_int_slack_0 <= 1
 0 <= c1a_2_int_slack_1 <= 1
 0 <= c1a_5_int_slack_0 <= 1
 0 <= c1a_5_int_slack_1 <= 1
 0 <= c1a_6_int_slack_0 <= 1
 0 <= c1a_7_int_slack_0 <= 1
 0 <= c1a_9_int_slack_0 <= 1
 0 <= c1a_10_int_slack_0 <= 1
 0 <= c1a_12_int_slack_0 <= 1
 0 <= c1a_13_int_slack_0 <= 1
 0 <= c1a_14_int_slack_0 <= 1

Binaries
 y_0 y_1 y_2 y_3 y_4 y_5 y_6 y_7 y_8 y_9 y_10 y_11 y_12 y_13 y_14 y_15 x_1 x_6
 x_13 c1a_0_int_slack_0 c1a_1_int_slack_0 c1a_2_int_slack_0 c1a_2_int_slack_1
 c1a_5_int_slack_0 c1a_5_int_slack_1 c1a_6_int_slack_0 c1a_7_int_slack_0
 c1a_9_int_slack_0 c1a_10_int_slack_0 c1a_12_int_slack_0 c1a_13_int_slack_0
 c1a_14_int_slack_0
End
